p cnf 25 22
-4 -22 1 -2 0
-11 -5 -17 7 0
-19 9 -18 0
3 11 -14 -22 0
25 -2 -22 18 0
-18 10 0
-21 -12 -10 -23 -20 6 -1 16 -22 -2 3 9 5 25 -24 -19 -4 -18 15 8 0
18 -9 4 -21 2 -5 -19 -1 -8 17 13 -16 -23 15 -24 -20 -10 22 0
16 -11 0
7 -17 -1 21 -24 3 -5 22 9 -14 -8 18 -6 23 0
-24 1 -14 0
1 -2 23 0
-22 -11 0
-6 -25 18 14 7 0
-5 6 -3 0
12 13 -1 -7 -4 -3 -15 21 -10 -2 -22 14 6 -17 -16 18 0
9 -4 -5 -22 10 -11 -15 7 -21 6 -17 -8 2 14 3 -19 -12 16 -13 25 24 -1 18 -23 0
17 -4 -14 -8 -22 -13 3 20 21 -5 11 -16 2 18 1 10 24 6 -7 9 -15 -23 -19 0
25 22 23 -10 0
-10 2 0
17 23 -14 0
-4 7 -18 22 -3 11 0
